Value of objective function:     0.4689363219
X1                0.023201
X2                       0
X3                       0
X4                       0
X5                       0
X6                       0
X7                       0
X8                 0.15108
X9                 0.41633
X10                      0
X11                      0
X12                0.40939
X13                0.41645
X14               0.052486
X15                      0
X16                      0

Dual values:
r_1                      0
r_2                      0
r_3             -0.0022575
r_4                      0
r_5                      0
r_6                      0
r_7                      0
r_8                      0
r_9                      0
r_10                     0
r_11                     0
r_12                     0
r_13            -0.0025478
r_14                     0
r_15                     0
r_16                     0
r_17                     0
r_18                     0
r_19             0.0046847
r_20                     0
r_21                     0
r_22                     0
r_23                     0
r_24                     0
r_25            0.00023932
r_26            1.4087e-05
r_27                     0
r_28                     0
r_29            4.6688e-06
